instances/in_50_25_8_1.lp
#const n = 50.
#const k = 25.
#const h = 8.
tile(1,9,22).
tile(2,25,21).
tile(3,22,10).
tile(4,3,17).
tile(5,16,22).
tile(6,14,25).
tile(7,3,24).
tile(8,25,10).
tile(9,22,12).
tile(10,11,25).
tile(11,17,22).
tile(12,21,21).
tile(13,22,3).
tile(14,6,21).
tile(15,20,19).
tile(16,25,18).
tile(17,11,15).
tile(18,9,8).
tile(19,17,22).
tile(20,10,21).
tile(21,14,25).
tile(22,19,17).
tile(23,12,20).
tile(24,6,24).
tile(25,15,24).
tile(26,16,9).
tile(27,18,21).
tile(28,2,7).
tile(29,23,14).
tile(30,19,22).
tile(31,12,23).
tile(32,13,2).
tile(33,19,23).
tile(34,8,1).
tile(35,2,22).
tile(36,12,8).
tile(37,17,17).
tile(38,10,9).
tile(39,23,7).
tile(40,22,7).
tile(41,8,4).
tile(42,9,6).
tile(43,2,19).
tile(44,21,10).
tile(45,23,8).
tile(46,23,17).
tile(47,23,5).
tile(48,12,16).
tile(49,19,6).
tile(50,11,9).
