minizinc/input/in_50_25_8_1.dzn
n = 50;
k = 25;
h = 8;
tiles = array2d(1..n, 1..2,
[ 9,22
, 25,21
, 22,10
, 3,17
, 16,22
, 14,25
, 3,24
, 25,10
, 22,12
, 11,25
, 17,22
, 21,21
, 22,3
, 6,21
, 20,19
, 25,18
, 11,15
, 9,8
, 17,22
, 10,21
, 14,25
, 19,17
, 12,20
, 6,24
, 15,24
, 16,9
, 18,21
, 2,7
, 23,14
, 19,22
, 12,23
, 13,2
, 19,23
, 8,1
, 2,22
, 12,8
, 17,17
, 10,9
, 23,7
, 22,7
, 8,4
, 9,6
, 2,19
, 21,10
, 23,8
, 23,17
, 23,5
, 12,16
, 19,6
, 11,9
]);